language Essence 1.3

letting class be function(1 --> 1, 2 --> 1, 3 --> 1, 4 --> 1, 5 --> 1, 6 --> 1, 7 --> 1, 8 --> 1)
letting deck_length be 16
letting deck_width be 36
letting length be function(1 --> 6, 2 --> 3, 3 --> 6, 4 --> 14, 5 --> 2, 6 --> 15, 7 --> 2, 8 --> 2)
letting n_classes be 1
letting n_containers be 8
letting separation be function()
letting width be function(1 --> 11, 2 --> 29, 3 --> 15, 4 --> 6, 5 --> 1, 6 --> 16, 7 --> 2, 8 --> 1)
